rehearsal = [[1,1,1,1,1,1,1,1,1,1,1,1,1,0,0], [1,1,1,0,0,0,1,1,1,1,1,1,1,0,1], [1,0,1,1,0,1,1,1,1,1,1,0,1,1,0], [1,1,1,1,1,1,1,1,1,0,1,1,1,0,0], [1,1,0,1,1,1,0,1,1,1,1,0,0,1,1], [0,1,1,1,0,1,1,1,0,1,0,1,1,1,0], [1,0,1,1,0,0,0,1,1,1,1,0,1,0,1], [1,1,1,1,1,0,1,1,1,0,1,1,1,1,0], [1,1,0,1,1,1,0,1,0,1,0,1,1,0,0], [1,1,0,1,1,1,1,0,1,1,1,1,1,1,1], [1,1,1,1,0,1,1,0,0,0,0,1,1,1,0], [1,1,1,1,0,0,1,1,0,1,1,1,0,1,1], [0,1,1,1,1,1,1,1,1,1,1,1,1,1,1], [1,0,0,1,1,1,1,1,0,1,1,0,1,1,0], [1,0,0,0,0,1,1,0,1,1,0,1,1,1,1], [1,1,1,0,0,1,1,1,1,1,1,0,1,1,1], [1,0,1,1,1,0,1,1,1,1,1,1,1,1,0], [0,1,1,1,1,0,0,1,1,0,1,0,1,0,1], [1,1,0,1,0,1,0,1,1,0,0,1,1,0,1], [1,0,0,0,1,0,1,0,1,1,1,1,1,1,1], [1,1,0,0,1,1,1,1,1,1,1,1,1,0,1], [1,0,0,1,1,1,1,1,1,0,1,0,1,0,0], [1,1,1,1,1,0,0,1,1,0,1,1,1,1,1], [0,1,1,1,1,1,1,1,1,0,1,0,1,1,1], [1,0,0,1,1,0,1,0,0,1,0,1,1,1,1], [1,1,1,1,1,1,0,0,1,1,1,1,0,1,0], [0,0,0,1,1,0,1,1,0,1,0,1,0,0,1], [1,1,1,1,1,0,0,1,0,0,0,1,1,0,1], [1,1,1,1,1,1,1,1,1,1,0,1,1,1,0], [0,1,1,1,0,1,1,1,1,1,1,1,0,0,1], [1,1,1,1,0,1,1,0,1,1,1,0,1,1,1], [1,1,1,1,0,1,1,1,1,1,0,0,1,0,1], [1,0,1,0,1,0,1,1,1,1,1,0,1,0,1], [1,1,0,1,1,0,1,1,0,1,0,1,1,1,1], [1,1,1,1,1,1,0,0,0,1,0,0,0,0,0], [0,1,1,1,1,1,1,0,1,1,1,0,1,0,0], [1,1,1,0,1,1,1,0,1,0,0,1,0,1,1], [1,1,1,1,1,1,0,1,1,1,0,0,1,0,0], [1,1,0,1,1,1,0,1,1,1,1,0,0,1,1], [0,1,1,1,1,1,1,1,0,1,1,1,1,1,1], [1,0,1,1,1,0,0,0,0,1,1,1,1,0,1], [1,1,0,1,1,1,1,1,1,1,1,0,1,0,1], [1,1,1,1,0,1,1,1,1,0,1,0,1,0,1], [0,1,0,1,1,0,1,0,0,1,0,0,1,1,1], [0,1,0,0,1,1,0,1,1,1,1,0,1,1,0], [0,1,1,0,1,0,1,1,0,1,1,1,1,1,1], [1,1,0,1,0,0,1,1,1,1,1,1,0,1,1], [1,1,1,0,0,0,0,1,1,1,1,1,1,0,1], [1,1,0,0,0,1,0,0,1,1,0,1,0,1,0], [1,0,1,1,1,0,1,1,1,1,1,1,1,0,1]];
permutations = [6,2,3,9,1,4,5,10,8,13,12,15,11,7,14];